NAME: gr21_n7
TYPE: TSP
COMMENT: 7-city problem (Groetschel)
DIMENSION: 7
EDGE_WEIGHT_TYPE: EXPLICIT
EDGE_WEIGHT_FORMAT: LOWER_DIAG_ROW 
EDGE_WEIGHT_SECTION
0
510	0
635	355	0
91	415	605	0
385	585	390	350	0
155	475	495	120	240	0
110	480	570	78	320	96	0                                            
EOF            
